[2026-03-23T13:38:09.648Z] Pipeline "set_exp_2_exp_2_n026_c006_g001" → 2026_03_23_13_38_09_set_exp_2_exp_2_n026_c006_g001_max.sol
Set parameter WLSAccessID
Set parameter WLSSecret
Set parameter LicenseID to value 2792458
Set parameter LogFile to value "gurobi.log"
Using license file /root/gurobi.lic
Academic license 2792458 - for non-commercial use only - registered to an___@studenti.unipg.it

Gurobi Optimizer version 13.0.1 build v13.0.1rc0 (linux64 - "Ubuntu 24.04.4 LTS")
Copyright (c) 2026, Gurobi Optimization, LLC

Warning: Duplicate section found (read 'binary') - Is a variable name equal to an LP file format keyword?
Warning: Duplicate section found (read 'binary') - Is a variable name equal to an LP file format keyword?
Warning: Duplicate section found (read 'binary') - Is a variable name equal to an LP file format keyword?
Warning: Duplicate section found (read 'binary') - Is a variable name equal to an LP file format keyword?
Warning: Duplicate section found (read 'binary') - Is a variable name equal to an LP file format keyword?
Warning: Duplicate section found (read 'binary') - Is a variable name equal to an LP file format keyword?
Warning: Duplicate section found (read 'binary') - Is a variable name equal to an LP file format keyword?
Warning: Duplicate section found (read 'binary') - Is a variable name equal to an LP file format keyword?
Warning: Duplicate section found (read 'binary') - Is a variable name equal to an LP file format keyword?
Warning: Duplicate section found (read 'binary') - Is a variable name equal to an LP file format keyword?
Warning: Further warnings of this type will be omitted.
Read LP format model from file /root/bgw/data/uploads/2026_03_23_13_38_09_set_exp_2_exp_2_n026_c006_g001_max.lp
Reading time = 0.01 seconds
: 6032 rows, 516 columns, 17911 nonzeros

Using Gurobi shared library /opt/gurobi1301/linux64/lib/libgurobi.so.13.0.1

CPU model: AMD EPYC-Genoa Processor, instruction set [SSE2|AVX|AVX2|AVX512]
Thread count: 16 physical cores, 16 logical processors, using up to 16 threads

Academic license 2792458 - for non-commercial use only - registered to an___@studenti.unipg.it
Optimize a model with 6032 rows, 516 columns and 17911 nonzeros (Max)
Model fingerprint: 0x73307e3d
Model has 10 linear objective coefficients
Variable types: 36 continuous, 480 integer (480 binary)
Coefficient statistics:
  Matrix range     [1e+00, 3e+01]
  Objective range  [1e+00, 1e+00]
  Bounds range     [1e+00, 1e+00]
  RHS range        [1e+00, 3e+01]

Found heuristic solution: objective 10.0000000
Presolve removed 780 rows and 158 columns
Presolve time: 0.03s
Presolved: 5252 rows, 358 columns, 16078 nonzeros
Variable types: 0 continuous, 358 integer (344 binary)
Found heuristic solution: objective 11.0000000

Root relaxation: objective 4.300000e+01, 547 iterations, 0.04 seconds (0.05 work units)

    Nodes    |    Current Node    |     Objective Bounds      |     Work
 Expl Unexpl |  Obj  Depth IntInf | Incumbent    BestBd   Gap | It/Node Time

     0     0   43.00000    0   42   11.00000   43.00000   291%     -    0s
H    0     0                      20.0000000   43.00000   115%     -    0s
H    0     0                      24.0000000   43.00000  79.2%     -    0s
H    0     0                      25.0000000   43.00000  72.0%     -    0s
H    0     0                      26.0000000   43.00000  65.4%     -    0s
H    0     0                      28.0000000   43.00000  53.6%     -    0s
     0     0   43.00000    0   49   28.00000   43.00000  53.6%     -    0s
     0     0   43.00000    0   52   28.00000   43.00000  53.6%     -    0s
     0     0   43.00000    0   51   28.00000   43.00000  53.6%     -    0s
     0     0   43.00000    0   35   28.00000   43.00000  53.6%     -    0s
     0     0   42.91667    0   34   28.00000   42.91667  53.3%     -    0s
     0     0   41.95833    0   41   28.00000   41.95833  49.9%     -    0s
     0     0   41.95833    0   31   28.00000   41.95833  49.9%     -    0s
     0     0   41.00000    0   30   28.00000   41.00000  46.4%     -    0s
     0     0   41.00000    0   29   28.00000   41.00000  46.4%     -    0s
     0     0   41.00000    0   29   28.00000   41.00000  46.4%     -    0s
     0     0   41.00000    0   29   28.00000   41.00000  46.4%     -    0s
     0     0   41.00000    0   36   28.00000   41.00000  46.4%     -    0s
     0     0   41.00000    0   30   28.00000   41.00000  46.4%     -    0s
     0     0   41.00000    0   30   28.00000   41.00000  46.4%     -    0s
     0     0   41.00000    0   39   28.00000   41.00000  46.4%     -    0s
     0     0   41.00000    0   28   28.00000   41.00000  46.4%     -    0s
     0     0   41.00000    0   39   28.00000   41.00000  46.4%     -    0s
     0     0   41.00000    0   33   28.00000   41.00000  46.4%     -    0s
     0     0   41.00000    0   26   28.00000   41.00000  46.4%     -    0s
     0     0   41.00000    0   26   28.00000   41.00000  46.4%     -    0s
     0     0   41.00000    0   35   28.00000   41.00000  46.4%     -    0s
     0     0   41.00000    0   26   28.00000   41.00000  46.4%     -    0s
     0     0   41.00000    0   26   28.00000   41.00000  46.4%     -    0s
     0     0   41.00000    0   35   28.00000   41.00000  46.4%     -    0s
     0     0   41.00000    0   35   28.00000   41.00000  46.4%     -    0s
     0     0   41.00000    0   35   28.00000   41.00000  46.4%     -    0s
     0     0   41.00000    0   26   28.00000   41.00000  46.4%     -    0s
     0     2   41.00000    0   26   28.00000   41.00000  46.4%     -    0s

Cutting planes:
  Cover: 9
  MIR: 6
  Inf proof: 46
  Zero half: 14

Explored 2709 nodes (329460 simplex iterations) in 2.98 seconds (4.95 work units)
Thread count was 16 (of 16 available processors)

Solution count 7: 28 26 25 ... 10

Optimal solution found (tolerance 1.00e-04)
Best objective 2.800000000000e+01, best bound 2.800000000000e+01, gap 0.0000%

Wrote result file '/root/bgw/data/results/2026_03_23_13_38_09_set_exp_2_exp_2_n026_c006_g001_max.sol'

